
  32    4
  10   10   10   10

   0   0   0   0   0   3 2 30 31 
  10   0   1   1   1   1 3 
   7   1   0   3   5   3 29 19 4 
   3   0   6   2   4   1 5 
   8   0   2   3   2   2 28 6 
   3   3   1   0   5   1 7 
   6   4   8   2   0   5 27 26 25 24 8 
   4   3   0   2   1   2 23 9 
   5   3   0   7   2   1 10 
   7   1   5   0   3   2 22 11 
   3   5   0   5   3   1 12 
   6   7   6   0   5   1 13 
   4   4   2   4   0   1 14 
   8   6   0   8   3   1 15 
   8   7   3   3   0   1 16 
   9   2   4   5   0   2 21 17 
  10   4   6   3   0   1 18 
   9   9   4   6   0   1 20 
   5   6   0   6   5   1 21 
   6   5   0   2   6   1 32
   4   2   5   0   5   1 32
   5   4   5   0   7   1 32
  10   5   5   7   0   1 32
   8   1   2   0   6   1 32
   9   0   3   4   4   1 32
  10   5   4   4   0   1 32
   2   2   3   3   0   1 32
  10   3   0   6   3   1 32
   7   4   0   3   2   1 32
   6   0   5   4   7   1 32
   1   4   0   3   5   1 32
   0   0   0   0   0   0 
